(set-info :smt-lib-version 2.6)
(set-logic UF)
(set-info :source |Benchmarks from the paper: "Extending Sledgehammer with SMT Solvers" by Jasmin Blanchette, Sascha Bohme, and Lawrence C. Paulson, CADE 2011.  Translated to SMT2 by Andrew Reynolds and Morgan Deters.|)
(set-info :category "industrial")
(set-info :status unknown)
(declare-sort S1 0)
(declare-sort S2 0)
(declare-sort S3 0)
(declare-sort S4 0)
(declare-sort S5 0)
(declare-sort S6 0)
(declare-sort S7 0)
(declare-sort S8 0)
(declare-sort S9 0)
(declare-sort S10 0)
(declare-sort S11 0)
(declare-sort S12 0)
(declare-sort S13 0)
(declare-sort S14 0)
(declare-sort S15 0)
(declare-sort S16 0)
(declare-sort S17 0)
(declare-sort S18 0)
(declare-sort S19 0)
(declare-sort S20 0)
(declare-sort S21 0)
(declare-sort S22 0)
(declare-sort S23 0)
(declare-sort S24 0)
(declare-sort S25 0)
(declare-sort S26 0)
(declare-sort S27 0)
(declare-sort S28 0)
(declare-sort S29 0)
(declare-sort S30 0)
(declare-sort S31 0)
(declare-sort S32 0)
(declare-sort S33 0)
(declare-sort S34 0)
(declare-sort S35 0)
(declare-sort S36 0)
(declare-sort S37 0)
(declare-sort S38 0)
(declare-sort S39 0)
(declare-sort S40 0)
(declare-sort S41 0)
(declare-sort S42 0)
(declare-sort S43 0)
(declare-sort S44 0)
(declare-sort S45 0)
(declare-sort S46 0)
(declare-sort S47 0)
(declare-sort S48 0)
(declare-sort S49 0)
(declare-sort S50 0)
(declare-sort S51 0)
(declare-sort S52 0)
(declare-sort S53 0)
(declare-sort S54 0)
(declare-sort S55 0)
(declare-sort S56 0)
(declare-sort S57 0)
(declare-sort S58 0)
(declare-sort S59 0)
(declare-sort S60 0)
(declare-sort S61 0)
(declare-sort S62 0)
(declare-sort S63 0)
(declare-sort S64 0)
(declare-sort S65 0)
(declare-sort S66 0)
(declare-sort S67 0)
(declare-sort S68 0)
(declare-sort S69 0)
(declare-sort S70 0)
(declare-sort S71 0)
(declare-sort S72 0)
(declare-sort S73 0)
(declare-sort S74 0)
(declare-sort S75 0)
(declare-sort S76 0)
(declare-sort S77 0)
(declare-sort S78 0)
(declare-sort S79 0)
(declare-sort S80 0)
(declare-sort S81 0)
(declare-sort S82 0)
(declare-sort S83 0)
(declare-sort S84 0)
(declare-sort S85 0)
(declare-sort S86 0)
(declare-sort S87 0)
(declare-sort S88 0)
(declare-sort S89 0)
(declare-sort S90 0)
(declare-sort S91 0)
(declare-sort S92 0)
(declare-sort S93 0)
(declare-sort S94 0)
(declare-sort S95 0)
(declare-sort S96 0)
(declare-sort S97 0)
(declare-sort S98 0)
(declare-sort S99 0)
(declare-sort S100 0)
(declare-sort S101 0)
(declare-sort S102 0)
(declare-sort S103 0)
(declare-sort S104 0)
(declare-sort S105 0)
(declare-fun f1 () S1)
(declare-fun f2 () S1)
(declare-fun f3 (S2 S3) S1)
(declare-fun f4 () S2)
(declare-fun f5 (S4 S5) S3)
(declare-fun f6 () S4)
(declare-fun f7 () S5)
(declare-fun f8 (S6 S5) S7)
(declare-fun f9 () S6)
(declare-fun f10 () S7)
(declare-fun f11 (S3 S8) S8)
(declare-fun f12 () S5)
(declare-fun f13 () S8)
(declare-fun f14 (S10 S9) S9)
(declare-fun f15 (S11 S12) S10)
(declare-fun f16 () S11)
(declare-fun f17 () S12)
(declare-fun f18 () S9)
(declare-fun f19 (S13 S7) S7)
(declare-fun f20 (S14 S15) S13)
(declare-fun f21 () S14)
(declare-fun f22 () S15)
(declare-fun f23 (S17 S16) S16)
(declare-fun f24 (S18 S19) S17)
(declare-fun f25 () S18)
(declare-fun f26 () S19)
(declare-fun f27 () S16)
(declare-fun f28 (S21 S20) S20)
(declare-fun f29 (S22 S23) S21)
(declare-fun f30 () S22)
(declare-fun f31 () S23)
(declare-fun f32 () S20)
(declare-fun f33 (S25 S24) S24)
(declare-fun f34 (S26 S27) S25)
(declare-fun f35 () S26)
(declare-fun f36 () S27)
(declare-fun f37 () S24)
(declare-fun f38 (S28 S15) S15)
(declare-fun f39 (S29 S24) S28)
(declare-fun f40 () S29)
(declare-fun f41 (S30 S12) S12)
(declare-fun f42 (S31 S20) S30)
(declare-fun f43 () S31)
(declare-fun f44 (S32 S5) S5)
(declare-fun f45 (S33 S16) S32)
(declare-fun f46 () S33)
(declare-fun f47 (S34 S8) S6)
(declare-fun f48 () S34)
(declare-fun f49 (S35 S12) S7)
(declare-fun f50 (S36 S9) S35)
(declare-fun f51 () S36)
(declare-fun f52 (S37 S19) S7)
(declare-fun f53 (S38 S16) S37)
(declare-fun f54 () S38)
(declare-fun f55 (S39 S23) S7)
(declare-fun f56 (S40 S20) S39)
(declare-fun f57 () S40)
(declare-fun f58 (S41 S20) S7)
(declare-fun f59 (S42 S12) S41)
(declare-fun f60 () S42)
(declare-fun f61 (S43 S16) S7)
(declare-fun f62 (S44 S5) S43)
(declare-fun f63 () S44)
(declare-fun f64 (S45 S8) S5)
(declare-fun f65 (S46 S5) S45)
(declare-fun f66 () S46)
(declare-fun f67 () S43)
(declare-fun f68 (S47 S5) S16)
(declare-fun f69 (S48 S16) S47)
(declare-fun f70 () S48)
(declare-fun f71 () S41)
(declare-fun f72 (S49 S12) S20)
(declare-fun f73 (S50 S20) S49)
(declare-fun f74 () S50)
(declare-fun f75 (S51 S24) S7)
(declare-fun f76 () S51)
(declare-fun f77 (S52 S15) S24)
(declare-fun f78 (S53 S24) S52)
(declare-fun f79 () S53)
(declare-fun f80 (S54 S15) S7)
(declare-fun f81 () S54)
(declare-fun f82 (S55 S7) S15)
(declare-fun f83 (S56 S15) S55)
(declare-fun f84 () S56)
(declare-fun f85 () S35)
(declare-fun f86 (S57 S9) S12)
(declare-fun f87 (S58 S12) S57)
(declare-fun f88 () S58)
(declare-fun f89 (S59 S8) S32)
(declare-fun f90 () S59)
(declare-fun f91 (S60 S9) S30)
(declare-fun f92 () S60)
(declare-fun f93 () S37)
(declare-fun f94 (S61 S19) S19)
(declare-fun f95 (S62 S16) S61)
(declare-fun f96 () S62)
(declare-fun f97 () S39)
(declare-fun f98 (S63 S23) S23)
(declare-fun f99 (S64 S20) S63)
(declare-fun f100 () S64)
(declare-fun f101 (S65 S12) S21)
(declare-fun f102 () S65)
(declare-fun f103 (S66 S5) S17)
(declare-fun f104 () S66)
(declare-fun f105 (S67 S7) S5)
(declare-fun f106 (S68 S8) S67)
(declare-fun f107 () S68)
(declare-fun f108 (S69 S7) S12)
(declare-fun f109 (S70 S9) S69)
(declare-fun f110 () S70)
(declare-fun f111 (S71 S7) S55)
(declare-fun f112 () S71)
(declare-fun f113 (S72 S7) S19)
(declare-fun f114 (S73 S16) S72)
(declare-fun f115 () S73)
(declare-fun f116 (S74 S7) S23)
(declare-fun f117 (S75 S20) S74)
(declare-fun f118 () S75)
(declare-fun f119 (S76 S27) S7)
(declare-fun f120 () S76)
(declare-fun f121 (S77 S7) S27)
(declare-fun f122 (S78 S24) S77)
(declare-fun f123 () S78)
(declare-fun f124 (S79 S7) S24)
(declare-fun f125 (S80 S15) S79)
(declare-fun f126 () S80)
(declare-fun f127 (S81 S7) S20)
(declare-fun f128 (S82 S12) S81)
(declare-fun f129 () S82)
(declare-fun f130 (S83 S7) S16)
(declare-fun f131 (S84 S5) S83)
(declare-fun f132 () S84)
(declare-fun f133 (S85 S1) S7)
(declare-fun f134 () S85)
(declare-fun f135 (S87 S86) S7)
(declare-fun f136 () S87)
(declare-fun f137 (S89 S88) S7)
(declare-fun f138 () S89)
(declare-fun f139 (S90 S15) S25)
(declare-fun f140 () S90)
(declare-fun f141 (S91 S7) S28)
(declare-fun f142 () S91)
(declare-fun f143 (S92 S27) S27)
(declare-fun f144 (S93 S24) S92)
(declare-fun f145 () S93)
(declare-fun f146 () S46)
(declare-fun f147 () S48)
(declare-fun f148 () S50)
(declare-fun f149 () S53)
(declare-fun f150 () S56)
(declare-fun f151 () S58)
(declare-fun f152 () S43)
(declare-fun f153 () S41)
(declare-fun f154 () S51)
(declare-fun f155 () S54)
(declare-fun f156 () S35)
(declare-fun f157 () S6)
(declare-fun f158 () S89)
(declare-fun f159 () S13)
(declare-fun f160 (S94 S7) S1)
(declare-fun f161 (S95 S7) S94)
(declare-fun f162 () S95)
(declare-fun f163 () S85)
(declare-fun f164 (S96 S7) S8)
(declare-fun f165 (S97 S5) S96)
(declare-fun f166 () S97)
(declare-fun f167 (S98 S7) S9)
(declare-fun f168 (S99 S12) S98)
(declare-fun f169 () S99)
(declare-fun f170 () S14)
(declare-fun f171 (S100 S19) S83)
(declare-fun f172 () S100)
(declare-fun f173 (S101 S23) S81)
(declare-fun f174 () S101)
(declare-fun f175 (S102 S27) S79)
(declare-fun f176 () S102)
(declare-fun f177 (S103 S24) S55)
(declare-fun f178 () S103)
(declare-fun f179 (S104 S20) S69)
(declare-fun f180 () S104)
(declare-fun f181 (S105 S16) S67)
(declare-fun f182 () S105)
(declare-fun f183 () S95)
(declare-fun f184 () S13)
(assert (not (= f1 f2)))
(assert (not (= (= (f3 f4 (f5 f6 f7)) f1) (= (f8 f9 f7) f10))))
(assert (forall ((?v0 S3)) (= (= (f3 f4 ?v0) f1) (forall ((?v1 S8) (?v2 S8)) (= (f11 ?v0 ?v1) (f11 ?v0 ?v2))))))
(assert (forall ((?v0 S8)) (= (f11 (f5 f6 f12) ?v0) f13)))
(assert (forall ((?v0 S9)) (= (f14 (f15 f16 f17) ?v0) f18)))
(assert (forall ((?v0 S7)) (= (f19 (f20 f21 f22) ?v0) f10)))
(assert (forall ((?v0 S16)) (= (f23 (f24 f25 f26) ?v0) f27)))
(assert (forall ((?v0 S20)) (= (f28 (f29 f30 f31) ?v0) f32)))
(assert (forall ((?v0 S24)) (= (f33 (f34 f35 f36) ?v0) f37)))
(assert (forall ((?v0 S15)) (= (f38 (f39 f40 f37) ?v0) f22)))
(assert (forall ((?v0 S12)) (= (f41 (f42 f43 f32) ?v0) f17)))
(assert (forall ((?v0 S5)) (= (f44 (f45 f46 f27) ?v0) f12)))
(assert (forall ((?v0 S5) (?v1 S5)) (= (= (f5 f6 ?v0) (f5 f6 ?v1)) (= ?v0 ?v1))))
(assert (forall ((?v0 S20) (?v1 S20)) (= (= (f42 f43 ?v0) (f42 f43 ?v1)) (= ?v0 ?v1))))
(assert (forall ((?v0 S12) (?v1 S12)) (= (= (f15 f16 ?v0) (f15 f16 ?v1)) (= ?v0 ?v1))))
(assert (forall ((?v0 S5) (?v1 S8)) (= (= (f11 (f5 f6 ?v0) ?v1) f13) (or (= ?v0 f12) (not (= (f8 (f47 f48 ?v1) ?v0) f10))))))
(assert (forall ((?v0 S12) (?v1 S9)) (= (= (f14 (f15 f16 ?v0) ?v1) f18) (or (= ?v0 f17) (not (= (f49 (f50 f51 ?v1) ?v0) f10))))))
(assert (forall ((?v0 S19) (?v1 S16)) (= (= (f23 (f24 f25 ?v0) ?v1) f27) (or (= ?v0 f26) (not (= (f52 (f53 f54 ?v1) ?v0) f10))))))
(assert (forall ((?v0 S23) (?v1 S20)) (= (= (f28 (f29 f30 ?v0) ?v1) f32) (or (= ?v0 f31) (not (= (f55 (f56 f57 ?v1) ?v0) f10))))))
(assert (forall ((?v0 S20) (?v1 S12)) (= (= (f41 (f42 f43 ?v0) ?v1) f17) (or (= ?v0 f32) (not (= (f58 (f59 f60 ?v1) ?v0) f10))))))
(assert (forall ((?v0 S16) (?v1 S5)) (= (= (f44 (f45 f46 ?v0) ?v1) f12) (or (= ?v0 f27) (not (= (f61 (f62 f63 ?v1) ?v0) f10))))))
(assert (forall ((?v0 S9)) (= (= f18 ?v0) (= ?v0 f18))))
(assert (forall ((?v0 S7)) (= (= f10 ?v0) (= ?v0 f10))))
(assert (forall ((?v0 S16)) (= (= f27 ?v0) (= ?v0 f27))))
(assert (forall ((?v0 S20)) (= (= f32 ?v0) (= ?v0 f32))))
(assert (forall ((?v0 S24)) (= (= f37 ?v0) (= ?v0 f37))))
(assert (forall ((?v0 S15)) (= (= f22 ?v0) (= ?v0 f22))))
(assert (forall ((?v0 S12)) (= (= f17 ?v0) (= ?v0 f17))))
(assert (forall ((?v0 S8)) (= (= f13 ?v0) (= ?v0 f13))))
(assert (forall ((?v0 S5)) (= (= f12 ?v0) (= ?v0 f12))))
(assert (forall ((?v0 S5) (?v1 S8)) (= (f8 f9 (f64 (f65 f66 ?v0) ?v1)) (f8 f9 ?v0))))
(assert (forall ((?v0 S16) (?v1 S5)) (= (f61 f67 (f68 (f69 f70 ?v0) ?v1)) (f61 f67 ?v0))))
(assert (forall ((?v0 S20) (?v1 S12)) (= (f58 f71 (f72 (f73 f74 ?v0) ?v1)) (f58 f71 ?v0))))
(assert (forall ((?v0 S24) (?v1 S15)) (= (f75 f76 (f77 (f78 f79 ?v0) ?v1)) (f75 f76 ?v0))))
(assert (forall ((?v0 S15) (?v1 S7)) (= (f80 f81 (f82 (f83 f84 ?v0) ?v1)) (f80 f81 ?v0))))
(assert (forall ((?v0 S12) (?v1 S9)) (= (f49 f85 (f86 (f87 f88 ?v0) ?v1)) (f49 f85 ?v0))))
(assert (forall ((?v0 S8) (?v1 S5)) (= (f8 f9 (f44 (f89 f90 ?v0) ?v1)) (ite (= ?v0 f13) f10 (f8 f9 ?v1)))))
(assert (forall ((?v0 S9) (?v1 S12)) (= (f49 f85 (f41 (f91 f92 ?v0) ?v1)) (ite (= ?v0 f18) f10 (f49 f85 ?v1)))))
(assert (forall ((?v0 S16) (?v1 S19)) (= (f52 f93 (f94 (f95 f96 ?v0) ?v1)) (ite (= ?v0 f27) f10 (f52 f93 ?v1)))))
(assert (forall ((?v0 S20) (?v1 S23)) (= (f55 f97 (f98 (f99 f100 ?v0) ?v1)) (ite (= ?v0 f32) f10 (f55 f97 ?v1)))))
(assert (forall ((?v0 S12) (?v1 S20)) (= (f58 f71 (f28 (f101 f102 ?v0) ?v1)) (ite (= ?v0 f17) f10 (f58 f71 ?v1)))))
(assert (forall ((?v0 S5) (?v1 S16)) (= (f61 f67 (f23 (f103 f104 ?v0) ?v1)) (ite (= ?v0 f12) f10 (f61 f67 ?v1)))))
(assert (forall ((?v0 S8) (?v1 S7)) (=> (not (= ?v0 f13)) (= (f8 f9 (f105 (f106 f107 ?v0) ?v1)) ?v1))))
(assert (forall ((?v0 S9) (?v1 S7)) (=> (not (= ?v0 f18)) (= (f49 f85 (f108 (f109 f110 ?v0) ?v1)) ?v1))))
(assert (forall ((?v0 S7) (?v1 S7)) (=> (not (= ?v0 f10)) (= (f80 f81 (f82 (f111 f112 ?v0) ?v1)) ?v1))))
(assert (forall ((?v0 S16) (?v1 S7)) (=> (not (= ?v0 f27)) (= (f52 f93 (f113 (f114 f115 ?v0) ?v1)) ?v1))))
(assert (forall ((?v0 S20) (?v1 S7)) (=> (not (= ?v0 f32)) (= (f55 f97 (f116 (f117 f118 ?v0) ?v1)) ?v1))))
(assert (forall ((?v0 S24) (?v1 S7)) (=> (not (= ?v0 f37)) (= (f119 f120 (f121 (f122 f123 ?v0) ?v1)) ?v1))))
(assert (forall ((?v0 S15) (?v1 S7)) (=> (not (= ?v0 f22)) (= (f75 f76 (f124 (f125 f126 ?v0) ?v1)) ?v1))))
(assert (forall ((?v0 S12) (?v1 S7)) (=> (not (= ?v0 f17)) (= (f58 f71 (f127 (f128 f129 ?v0) ?v1)) ?v1))))
(assert (forall ((?v0 S5) (?v1 S7)) (=> (not (= ?v0 f12)) (= (f61 f67 (f130 (f131 f132 ?v0) ?v1)) ?v1))))
(assert (= (f133 f134 f1) f10))
(assert (= (f133 f134 f2) f10))
(assert (forall ((?v0 S86)) (= (f135 f136 ?v0) f10)))
(assert (forall ((?v0 S88)) (= (f137 f138 ?v0) f10)))
(assert (= (f8 f9 f12) f10))
(assert (= (f61 f67 f27) f10))
(assert (= (f58 f71 f32) f10))
(assert (= (f75 f76 f37) f10))
(assert (= (f80 f81 f22) f10))
(assert (= (f49 f85 f17) f10))
(assert (forall ((?v0 S5)) (= (f68 (f69 f70 f27) ?v0) f27)))
(assert (forall ((?v0 S12)) (= (f72 (f73 f74 f32) ?v0) f32)))
(assert (forall ((?v0 S15)) (= (f77 (f78 f79 f37) ?v0) f37)))
(assert (forall ((?v0 S7)) (= (f82 (f83 f84 f22) ?v0) f22)))
(assert (forall ((?v0 S9)) (= (f86 (f87 f88 f17) ?v0) f17)))
(assert (forall ((?v0 S8)) (= (f64 (f65 f66 f12) ?v0) f12)))
(assert (forall ((?v0 S5)) (= (f23 (f103 f104 ?v0) f27) f27)))
(assert (forall ((?v0 S12)) (= (f28 (f101 f102 ?v0) f32) f32)))
(assert (forall ((?v0 S15)) (= (f33 (f139 f140 ?v0) f37) f37)))
(assert (forall ((?v0 S7)) (= (f38 (f141 f142 ?v0) f22) f22)))
(assert (forall ((?v0 S9)) (= (f41 (f91 f92 ?v0) f17) f17)))
(assert (forall ((?v0 S8)) (= (f44 (f89 f90 ?v0) f12) f12)))
(assert (forall ((?v0 S16) (?v1 S5)) (= (= (f68 (f69 f70 ?v0) ?v1) f27) (= ?v0 f27))))
(assert (forall ((?v0 S20) (?v1 S12)) (= (= (f72 (f73 f74 ?v0) ?v1) f32) (= ?v0 f32))))
(assert (forall ((?v0 S24) (?v1 S15)) (= (= (f77 (f78 f79 ?v0) ?v1) f37) (= ?v0 f37))))
(assert (forall ((?v0 S15) (?v1 S7)) (= (= (f82 (f83 f84 ?v0) ?v1) f22) (= ?v0 f22))))
(assert (forall ((?v0 S12) (?v1 S9)) (= (= (f86 (f87 f88 ?v0) ?v1) f17) (= ?v0 f17))))
(assert (forall ((?v0 S5) (?v1 S8)) (= (= (f64 (f65 f66 ?v0) ?v1) f12) (= ?v0 f12))))
(assert (forall ((?v0 S5) (?v1 S7) (?v2 S5)) (= (= (f130 (f131 f132 ?v0) ?v1) (f130 (f131 f132 ?v2) ?v1)) (= ?v0 ?v2))))
(assert (forall ((?v0 S12) (?v1 S7) (?v2 S12)) (= (= (f127 (f128 f129 ?v0) ?v1) (f127 (f128 f129 ?v2) ?v1)) (= ?v0 ?v2))))
(assert (forall ((?v0 S15) (?v1 S7) (?v2 S15)) (= (= (f124 (f125 f126 ?v0) ?v1) (f124 (f125 f126 ?v2) ?v1)) (= ?v0 ?v2))))
(assert (forall ((?v0 S7) (?v1 S7) (?v2 S7)) (= (= (f82 (f111 f112 ?v0) ?v1) (f82 (f111 f112 ?v2) ?v1)) (= ?v0 ?v2))))
(assert (forall ((?v0 S9) (?v1 S7) (?v2 S9)) (= (= (f108 (f109 f110 ?v0) ?v1) (f108 (f109 f110 ?v2) ?v1)) (= ?v0 ?v2))))
(assert (forall ((?v0 S8) (?v1 S7) (?v2 S8)) (= (= (f105 (f106 f107 ?v0) ?v1) (f105 (f106 f107 ?v2) ?v1)) (= ?v0 ?v2))))
(assert (forall ((?v0 S9) (?v1 S12)) (= (= (f41 (f91 f92 ?v0) ?v1) f17) (or (= ?v0 f18) (= ?v1 f17)))))
(assert (forall ((?v0 S16) (?v1 S19)) (= (= (f94 (f95 f96 ?v0) ?v1) f26) (or (= ?v0 f27) (= ?v1 f26)))))
(assert (forall ((?v0 S20) (?v1 S23)) (= (= (f98 (f99 f100 ?v0) ?v1) f31) (or (= ?v0 f32) (= ?v1 f31)))))
(assert (forall ((?v0 S12) (?v1 S20)) (= (= (f28 (f101 f102 ?v0) ?v1) f32) (or (= ?v0 f17) (= ?v1 f32)))))
(assert (forall ((?v0 S5) (?v1 S16)) (= (= (f23 (f103 f104 ?v0) ?v1) f27) (or (= ?v0 f12) (= ?v1 f27)))))
(assert (forall ((?v0 S8) (?v1 S5)) (= (= (f44 (f89 f90 ?v0) ?v1) f12) (or (= ?v0 f13) (= ?v1 f12)))))
(assert (forall ((?v0 S12)) (= (f41 (f91 f92 f18) ?v0) f17)))
(assert (forall ((?v0 S15)) (= (f38 (f141 f142 f10) ?v0) f22)))
(assert (forall ((?v0 S19)) (= (f94 (f95 f96 f27) ?v0) f26)))
(assert (forall ((?v0 S23)) (= (f98 (f99 f100 f32) ?v0) f31)))
(assert (forall ((?v0 S27)) (= (f143 (f144 f145 f37) ?v0) f36)))
(assert (forall ((?v0 S24)) (= (f33 (f139 f140 f22) ?v0) f37)))
(assert (forall ((?v0 S20)) (= (f28 (f101 f102 f17) ?v0) f32)))
(assert (forall ((?v0 S16)) (= (f23 (f103 f104 f12) ?v0) f27)))
(assert (forall ((?v0 S5)) (= (f44 (f89 f90 f13) ?v0) f12)))
(assert (forall ((?v0 S9) (?v1 S7)) (= (= (f108 (f109 f110 ?v0) ?v1) f17) (= ?v0 f18))))
(assert (forall ((?v0 S7) (?v1 S7)) (= (= (f82 (f111 f112 ?v0) ?v1) f22) (= ?v0 f10))))
(assert (forall ((?v0 S16) (?v1 S7)) (= (= (f113 (f114 f115 ?v0) ?v1) f26) (= ?v0 f27))))
(assert (forall ((?v0 S20) (?v1 S7)) (= (= (f116 (f117 f118 ?v0) ?v1) f31) (= ?v0 f32))))
(assert (forall ((?v0 S24) (?v1 S7)) (= (= (f121 (f122 f123 ?v0) ?v1) f36) (= ?v0 f37))))
(assert (forall ((?v0 S15) (?v1 S7)) (= (= (f124 (f125 f126 ?v0) ?v1) f37) (= ?v0 f22))))
(assert (forall ((?v0 S12) (?v1 S7)) (= (= (f127 (f128 f129 ?v0) ?v1) f32) (= ?v0 f17))))
(assert (forall ((?v0 S5) (?v1 S7)) (= (= (f130 (f131 f132 ?v0) ?v1) f27) (= ?v0 f12))))
(assert (forall ((?v0 S8) (?v1 S7)) (= (= (f105 (f106 f107 ?v0) ?v1) f12) (= ?v0 f13))))
(assert (forall ((?v0 S7)) (= (f108 (f109 f110 f18) ?v0) f17)))
(assert (forall ((?v0 S7)) (= (f82 (f111 f112 f10) ?v0) f22)))
(assert (forall ((?v0 S7)) (= (f113 (f114 f115 f27) ?v0) f26)))
(assert (forall ((?v0 S7)) (= (f116 (f117 f118 f32) ?v0) f31)))
(assert (forall ((?v0 S7)) (= (f121 (f122 f123 f37) ?v0) f36)))
(assert (forall ((?v0 S7)) (= (f124 (f125 f126 f22) ?v0) f37)))
(assert (forall ((?v0 S7)) (= (f127 (f128 f129 f17) ?v0) f32)))
(assert (forall ((?v0 S7)) (= (f130 (f131 f132 f12) ?v0) f27)))
(assert (forall ((?v0 S7)) (= (f105 (f106 f107 f13) ?v0) f12)))
(assert (forall ((?v0 S5)) (= (= (f5 f6 ?v0) (f5 f6 f12)) (= ?v0 f12))))
(assert (forall ((?v0 S20)) (= (= (f42 f43 ?v0) (f42 f43 f32)) (= ?v0 f32))))
(assert (forall ((?v0 S12)) (= (= (f15 f16 ?v0) (f15 f16 f17)) (= ?v0 f17))))
(assert (forall ((?v0 S5) (?v1 S8)) (= (= (f64 (f65 f146 ?v0) ?v1) f12) (= (f8 f9 ?v0) f10))))
(assert (forall ((?v0 S16) (?v1 S5)) (= (= (f68 (f69 f147 ?v0) ?v1) f27) (= (f61 f67 ?v0) f10))))
(assert (forall ((?v0 S20) (?v1 S12)) (= (= (f72 (f73 f148 ?v0) ?v1) f32) (= (f58 f71 ?v0) f10))))
(assert (forall ((?v0 S24) (?v1 S15)) (= (= (f77 (f78 f149 ?v0) ?v1) f37) (= (f75 f76 ?v0) f10))))
(assert (forall ((?v0 S15) (?v1 S7)) (= (= (f82 (f83 f150 ?v0) ?v1) f22) (= (f80 f81 ?v0) f10))))
(assert (forall ((?v0 S12) (?v1 S9)) (= (= (f86 (f87 f151 ?v0) ?v1) f17) (= (f49 f85 ?v0) f10))))
(assert (forall ((?v0 S16)) (= (= (f61 f152 ?v0) f10) (= ?v0 f27))))
(assert (forall ((?v0 S20)) (= (= (f58 f153 ?v0) f10) (= ?v0 f32))))
(assert (forall ((?v0 S24)) (= (= (f75 f154 ?v0) f10) (= ?v0 f37))))
(assert (forall ((?v0 S15)) (= (= (f80 f155 ?v0) f10) (= ?v0 f22))))
(assert (forall ((?v0 S12)) (= (= (f49 f156 ?v0) f10) (= ?v0 f17))))
(assert (forall ((?v0 S5)) (= (= (f8 f157 ?v0) f10) (= ?v0 f12))))
(assert (forall ((?v0 S88)) (= (f137 f158 ?v0) f10)))
(assert (= (f19 f159 f10) f10))
(assert (forall ((?v0 S5) (?v1 S8)) (=> (not (= ?v0 f12)) (= (f160 (f161 f162 (f8 (f47 f48 ?v1) ?v0)) (f8 f9 ?v0)) f1))))
(assert (forall ((?v0 S16) (?v1 S5)) (=> (not (= ?v0 f27)) (= (f160 (f161 f162 (f61 (f62 f63 ?v1) ?v0)) (f61 f67 ?v0)) f1))))
(assert (forall ((?v0 S20) (?v1 S12)) (=> (not (= ?v0 f32)) (= (f160 (f161 f162 (f58 (f59 f60 ?v1) ?v0)) (f58 f71 ?v0)) f1))))
(assert (forall ((?v0 S12) (?v1 S9)) (=> (not (= ?v0 f17)) (= (f160 (f161 f162 (f49 (f50 f51 ?v1) ?v0)) (f49 f85 ?v0)) f1))))
(assert (forall ((?v0 S1)) (= (f133 f163 ?v0) f10)))
(assert (= (f133 f163 f2) f10))
(assert (= (f133 f163 f1) f10))
(assert (forall ((?v0 S5)) (=> (not (= ?v0 f12)) (not (= (f164 (f165 f166 ?v0) (f8 f9 ?v0)) f13)))))
(assert (forall ((?v0 S12)) (=> (not (= ?v0 f17)) (not (= (f167 (f168 f169 ?v0) (f49 f85 ?v0)) f18)))))
(assert (forall ((?v0 S15)) (=> (not (= ?v0 f22)) (not (= (f19 (f20 f170 ?v0) (f80 f81 ?v0)) f10)))))
(assert (forall ((?v0 S19)) (=> (not (= ?v0 f26)) (not (= (f130 (f171 f172 ?v0) (f52 f93 ?v0)) f27)))))
(assert (forall ((?v0 S23)) (=> (not (= ?v0 f31)) (not (= (f127 (f173 f174 ?v0) (f55 f97 ?v0)) f32)))))
(assert (forall ((?v0 S27)) (=> (not (= ?v0 f36)) (not (= (f124 (f175 f176 ?v0) (f119 f120 ?v0)) f37)))))
(assert (forall ((?v0 S24)) (=> (not (= ?v0 f37)) (not (= (f82 (f177 f178 ?v0) (f75 f76 ?v0)) f22)))))
(assert (forall ((?v0 S20)) (=> (not (= ?v0 f32)) (not (= (f108 (f179 f180 ?v0) (f58 f71 ?v0)) f17)))))
(assert (forall ((?v0 S16)) (=> (not (= ?v0 f27)) (not (= (f105 (f181 f182 ?v0) (f61 f67 ?v0)) f12)))))
(assert (forall ((?v0 S5)) (= (= (f164 (f165 f166 ?v0) (f8 f9 ?v0)) f13) (= ?v0 f12))))
(assert (forall ((?v0 S12)) (= (= (f167 (f168 f169 ?v0) (f49 f85 ?v0)) f18) (= ?v0 f17))))
(assert (forall ((?v0 S15)) (= (= (f19 (f20 f170 ?v0) (f80 f81 ?v0)) f10) (= ?v0 f22))))
(assert (forall ((?v0 S19)) (= (= (f130 (f171 f172 ?v0) (f52 f93 ?v0)) f27) (= ?v0 f26))))
(assert (forall ((?v0 S23)) (= (= (f127 (f173 f174 ?v0) (f55 f97 ?v0)) f32) (= ?v0 f31))))
(assert (forall ((?v0 S27)) (= (= (f124 (f175 f176 ?v0) (f119 f120 ?v0)) f37) (= ?v0 f36))))
(assert (forall ((?v0 S24)) (= (= (f82 (f177 f178 ?v0) (f75 f76 ?v0)) f22) (= ?v0 f37))))
(assert (forall ((?v0 S20)) (= (= (f108 (f179 f180 ?v0) (f58 f71 ?v0)) f17) (= ?v0 f32))))
(assert (forall ((?v0 S16)) (= (= (f105 (f181 f182 ?v0) (f61 f67 ?v0)) f12) (= ?v0 f27))))
(assert (forall ((?v0 S16) (?v1 S16)) (= (= ?v0 ?v1) (forall ((?v2 S7)) (= (f105 (f181 f182 ?v0) ?v2) (f105 (f181 f182 ?v1) ?v2))))))
(assert (forall ((?v0 S20) (?v1 S20)) (= (= ?v0 ?v1) (forall ((?v2 S7)) (= (f108 (f179 f180 ?v0) ?v2) (f108 (f179 f180 ?v1) ?v2))))))
(assert (forall ((?v0 S24) (?v1 S24)) (= (= ?v0 ?v1) (forall ((?v2 S7)) (= (f82 (f177 f178 ?v0) ?v2) (f82 (f177 f178 ?v1) ?v2))))))
(assert (forall ((?v0 S15) (?v1 S15)) (= (= ?v0 ?v1) (forall ((?v2 S7)) (= (f19 (f20 f170 ?v0) ?v2) (f19 (f20 f170 ?v1) ?v2))))))
(assert (forall ((?v0 S12) (?v1 S12)) (= (= ?v0 ?v1) (forall ((?v2 S7)) (= (f167 (f168 f169 ?v0) ?v2) (f167 (f168 f169 ?v1) ?v2))))))
(assert (forall ((?v0 S5) (?v1 S5)) (= (= ?v0 ?v1) (forall ((?v2 S7)) (= (f164 (f165 f166 ?v0) ?v2) (f164 (f165 f166 ?v1) ?v2))))))
(assert (forall ((?v0 S16) (?v1 S16)) (= (= (f181 f182 ?v0) (f181 f182 ?v1)) (= ?v0 ?v1))))
(assert (forall ((?v0 S20) (?v1 S20)) (= (= (f179 f180 ?v0) (f179 f180 ?v1)) (= ?v0 ?v1))))
(assert (forall ((?v0 S24) (?v1 S24)) (= (= (f177 f178 ?v0) (f177 f178 ?v1)) (= ?v0 ?v1))))
(assert (forall ((?v0 S15) (?v1 S15)) (= (= (f20 f170 ?v0) (f20 f170 ?v1)) (= ?v0 ?v1))))
(assert (forall ((?v0 S12) (?v1 S12)) (= (= (f168 f169 ?v0) (f168 f169 ?v1)) (= ?v0 ?v1))))
(assert (forall ((?v0 S5) (?v1 S5)) (= (= (f165 f166 ?v0) (f165 f166 ?v1)) (= ?v0 ?v1))))
(assert (forall ((?v0 S5) (?v1 S7)) (=> (not (= (f164 (f165 f166 ?v0) ?v1) f13)) (= (f160 (f161 f162 ?v1) (f8 f9 ?v0)) f1))))
(assert (forall ((?v0 S12) (?v1 S7)) (=> (not (= (f167 (f168 f169 ?v0) ?v1) f18)) (= (f160 (f161 f162 ?v1) (f49 f85 ?v0)) f1))))
(assert (forall ((?v0 S15) (?v1 S7)) (=> (not (= (f19 (f20 f170 ?v0) ?v1) f10)) (= (f160 (f161 f162 ?v1) (f80 f81 ?v0)) f1))))
(assert (forall ((?v0 S19) (?v1 S7)) (=> (not (= (f130 (f171 f172 ?v0) ?v1) f27)) (= (f160 (f161 f162 ?v1) (f52 f93 ?v0)) f1))))
(assert (forall ((?v0 S23) (?v1 S7)) (=> (not (= (f127 (f173 f174 ?v0) ?v1) f32)) (= (f160 (f161 f162 ?v1) (f55 f97 ?v0)) f1))))
(assert (forall ((?v0 S27) (?v1 S7)) (=> (not (= (f124 (f175 f176 ?v0) ?v1) f37)) (= (f160 (f161 f162 ?v1) (f119 f120 ?v0)) f1))))
(assert (forall ((?v0 S24) (?v1 S7)) (=> (not (= (f82 (f177 f178 ?v0) ?v1) f22)) (= (f160 (f161 f162 ?v1) (f75 f76 ?v0)) f1))))
(assert (forall ((?v0 S20) (?v1 S7)) (=> (not (= (f108 (f179 f180 ?v0) ?v1) f17)) (= (f160 (f161 f162 ?v1) (f58 f71 ?v0)) f1))))
(assert (forall ((?v0 S16) (?v1 S7)) (=> (not (= (f105 (f181 f182 ?v0) ?v1) f12)) (= (f160 (f161 f162 ?v1) (f61 f67 ?v0)) f1))))
(assert (forall ((?v0 S7)) (= (f167 (f168 f169 f17) ?v0) f18)))
(assert (forall ((?v0 S7)) (= (f19 (f20 f170 f22) ?v0) f10)))
(assert (forall ((?v0 S7)) (= (f130 (f171 f172 f26) ?v0) f27)))
(assert (forall ((?v0 S7)) (= (f127 (f173 f174 f31) ?v0) f32)))
(assert (forall ((?v0 S7)) (= (f124 (f175 f176 f36) ?v0) f37)))
(assert (forall ((?v0 S7)) (= (f82 (f177 f178 f37) ?v0) f22)))
(assert (forall ((?v0 S7)) (= (f108 (f179 f180 f32) ?v0) f17)))
(assert (forall ((?v0 S7)) (= (f105 (f181 f182 f27) ?v0) f12)))
(assert (forall ((?v0 S7)) (= (f164 (f165 f166 f12) ?v0) f13)))
(assert (forall ((?v0 S9) (?v1 S7) (?v2 S7)) (= (f167 (f168 f169 (f108 (f109 f110 ?v0) ?v1)) ?v2) (ite (= ?v1 ?v2) ?v0 f18))))
(assert (forall ((?v0 S7) (?v1 S7) (?v2 S7)) (= (f19 (f20 f170 (f82 (f111 f112 ?v0) ?v1)) ?v2) (ite (= ?v1 ?v2) ?v0 f10))))
(assert (forall ((?v0 S16) (?v1 S7) (?v2 S7)) (= (f130 (f171 f172 (f113 (f114 f115 ?v0) ?v1)) ?v2) (ite (= ?v1 ?v2) ?v0 f27))))
(assert (forall ((?v0 S20) (?v1 S7) (?v2 S7)) (= (f127 (f173 f174 (f116 (f117 f118 ?v0) ?v1)) ?v2) (ite (= ?v1 ?v2) ?v0 f32))))
(assert (forall ((?v0 S24) (?v1 S7) (?v2 S7)) (= (f124 (f175 f176 (f121 (f122 f123 ?v0) ?v1)) ?v2) (ite (= ?v1 ?v2) ?v0 f37))))
(assert (forall ((?v0 S15) (?v1 S7) (?v2 S7)) (= (f82 (f177 f178 (f124 (f125 f126 ?v0) ?v1)) ?v2) (ite (= ?v1 ?v2) ?v0 f22))))
(assert (forall ((?v0 S12) (?v1 S7) (?v2 S7)) (= (f108 (f179 f180 (f127 (f128 f129 ?v0) ?v1)) ?v2) (ite (= ?v1 ?v2) ?v0 f17))))
(assert (forall ((?v0 S5) (?v1 S7) (?v2 S7)) (= (f105 (f181 f182 (f130 (f131 f132 ?v0) ?v1)) ?v2) (ite (= ?v1 ?v2) ?v0 f12))))
(assert (forall ((?v0 S8) (?v1 S7) (?v2 S7)) (= (f164 (f165 f166 (f105 (f106 f107 ?v0) ?v1)) ?v2) (ite (= ?v1 ?v2) ?v0 f13))))
(assert (forall ((?v0 S5)) (= (f68 (f69 f147 f27) ?v0) f27)))
(assert (forall ((?v0 S12)) (= (f72 (f73 f148 f32) ?v0) f32)))
(assert (forall ((?v0 S15)) (= (f77 (f78 f149 f37) ?v0) f37)))
(assert (forall ((?v0 S7)) (= (f82 (f83 f150 f22) ?v0) f22)))
(assert (forall ((?v0 S9)) (= (f86 (f87 f151 f17) ?v0) f17)))
(assert (forall ((?v0 S8)) (= (f64 (f65 f146 f12) ?v0) f12)))
(assert (forall ((?v0 S8) (?v1 S5)) (= (f160 (f161 f162 (f8 f9 (f44 (f89 f90 ?v0) ?v1))) (f8 f9 ?v1)) f1)))
(assert (forall ((?v0 S5) (?v1 S16)) (= (f160 (f161 f162 (f61 f67 (f23 (f103 f104 ?v0) ?v1))) (f61 f67 ?v1)) f1)))
(assert (forall ((?v0 S12) (?v1 S20)) (= (f160 (f161 f162 (f58 f71 (f28 (f101 f102 ?v0) ?v1))) (f58 f71 ?v1)) f1)))
(assert (forall ((?v0 S15) (?v1 S24)) (= (f160 (f161 f162 (f75 f76 (f33 (f139 f140 ?v0) ?v1))) (f75 f76 ?v1)) f1)))
(assert (forall ((?v0 S7) (?v1 S15)) (= (f160 (f161 f162 (f80 f81 (f38 (f141 f142 ?v0) ?v1))) (f80 f81 ?v1)) f1)))
(assert (forall ((?v0 S9) (?v1 S12)) (= (f160 (f161 f162 (f49 f85 (f41 (f91 f92 ?v0) ?v1))) (f49 f85 ?v1)) f1)))
(assert (forall ((?v0 S8) (?v1 S7)) (= (f160 (f161 f162 (f8 f9 (f105 (f106 f107 ?v0) ?v1))) ?v1) f1)))
(assert (forall ((?v0 S5) (?v1 S7)) (= (f160 (f161 f162 (f61 f67 (f130 (f131 f132 ?v0) ?v1))) ?v1) f1)))
(assert (forall ((?v0 S12) (?v1 S7)) (= (f160 (f161 f162 (f58 f71 (f127 (f128 f129 ?v0) ?v1))) ?v1) f1)))
(assert (forall ((?v0 S15) (?v1 S7)) (= (f160 (f161 f162 (f75 f76 (f124 (f125 f126 ?v0) ?v1))) ?v1) f1)))
(assert (forall ((?v0 S7) (?v1 S7)) (= (f160 (f161 f162 (f80 f81 (f82 (f111 f112 ?v0) ?v1))) ?v1) f1)))
(assert (forall ((?v0 S9) (?v1 S7)) (= (f160 (f161 f162 (f49 f85 (f108 (f109 f110 ?v0) ?v1))) ?v1) f1)))
(assert (forall ((?v0 S7)) (= (f160 (f161 f162 f10) ?v0) f1)))
(assert (forall ((?v0 S7)) (= (f160 (f161 f162 ?v0) ?v0) f1)))
(assert (forall ((?v0 S7)) (= (= (f160 (f161 f162 f10) ?v0) f1) true)))
(assert (forall ((?v0 S7)) (= (= (f160 (f161 f162 ?v0) f10) f1) (= ?v0 f10))))
(assert (forall ((?v0 S5) (?v1 S7)) (let ((?v_0 (f8 f9 ?v0))) (=> (= (f160 (f161 f162 ?v_0) ?v1) f1) (=> (= (f164 (f165 f166 ?v0) ?v1) f13) (or (= ?v0 f12) (= (f160 (f161 f183 ?v_0) ?v1) f1)))))))
(assert (forall ((?v0 S12) (?v1 S7)) (let ((?v_0 (f49 f85 ?v0))) (=> (= (f160 (f161 f162 ?v_0) ?v1) f1) (=> (= (f167 (f168 f169 ?v0) ?v1) f18) (or (= ?v0 f17) (= (f160 (f161 f183 ?v_0) ?v1) f1)))))))
(assert (forall ((?v0 S15) (?v1 S7)) (let ((?v_0 (f80 f81 ?v0))) (=> (= (f160 (f161 f162 ?v_0) ?v1) f1) (=> (= (f19 (f20 f170 ?v0) ?v1) f10) (or (= ?v0 f22) (= (f160 (f161 f183 ?v_0) ?v1) f1)))))))
(assert (forall ((?v0 S19) (?v1 S7)) (let ((?v_0 (f52 f93 ?v0))) (=> (= (f160 (f161 f162 ?v_0) ?v1) f1) (=> (= (f130 (f171 f172 ?v0) ?v1) f27) (or (= ?v0 f26) (= (f160 (f161 f183 ?v_0) ?v1) f1)))))))
(assert (forall ((?v0 S23) (?v1 S7)) (let ((?v_0 (f55 f97 ?v0))) (=> (= (f160 (f161 f162 ?v_0) ?v1) f1) (=> (= (f127 (f173 f174 ?v0) ?v1) f32) (or (= ?v0 f31) (= (f160 (f161 f183 ?v_0) ?v1) f1)))))))
(assert (forall ((?v0 S27) (?v1 S7)) (let ((?v_0 (f119 f120 ?v0))) (=> (= (f160 (f161 f162 ?v_0) ?v1) f1) (=> (= (f124 (f175 f176 ?v0) ?v1) f37) (or (= ?v0 f36) (= (f160 (f161 f183 ?v_0) ?v1) f1)))))))
(assert (forall ((?v0 S24) (?v1 S7)) (let ((?v_0 (f75 f76 ?v0))) (=> (= (f160 (f161 f162 ?v_0) ?v1) f1) (=> (= (f82 (f177 f178 ?v0) ?v1) f22) (or (= ?v0 f37) (= (f160 (f161 f183 ?v_0) ?v1) f1)))))))
(assert (forall ((?v0 S20) (?v1 S7)) (let ((?v_0 (f58 f71 ?v0))) (=> (= (f160 (f161 f162 ?v_0) ?v1) f1) (=> (= (f108 (f179 f180 ?v0) ?v1) f17) (or (= ?v0 f32) (= (f160 (f161 f183 ?v_0) ?v1) f1)))))))
(assert (forall ((?v0 S16) (?v1 S7)) (let ((?v_0 (f61 f67 ?v0))) (=> (= (f160 (f161 f162 ?v_0) ?v1) f1) (=> (= (f105 (f181 f182 ?v0) ?v1) f12) (or (= ?v0 f27) (= (f160 (f161 f183 ?v_0) ?v1) f1)))))))
(assert (forall ((?v0 S16) (?v1 S16)) (=> (forall ((?v2 S7)) (= (f105 (f181 f182 ?v0) ?v2) (f105 (f181 f182 ?v1) ?v2))) (= ?v0 ?v1))))
(assert (forall ((?v0 S20) (?v1 S20)) (=> (forall ((?v2 S7)) (= (f108 (f179 f180 ?v0) ?v2) (f108 (f179 f180 ?v1) ?v2))) (= ?v0 ?v1))))
(assert (forall ((?v0 S24) (?v1 S24)) (=> (forall ((?v2 S7)) (= (f82 (f177 f178 ?v0) ?v2) (f82 (f177 f178 ?v1) ?v2))) (= ?v0 ?v1))))
(assert (forall ((?v0 S15) (?v1 S15)) (=> (forall ((?v2 S7)) (= (f19 (f20 f170 ?v0) ?v2) (f19 (f20 f170 ?v1) ?v2))) (= ?v0 ?v1))))
(assert (forall ((?v0 S12) (?v1 S12)) (=> (forall ((?v2 S7)) (= (f167 (f168 f169 ?v0) ?v2) (f167 (f168 f169 ?v1) ?v2))) (= ?v0 ?v1))))
(assert (forall ((?v0 S5) (?v1 S5)) (=> (forall ((?v2 S7)) (= (f164 (f165 f166 ?v0) ?v2) (f164 (f165 f166 ?v1) ?v2))) (= ?v0 ?v1))))
(assert (forall ((?v0 S5)) (= (f8 f157 ?v0) (ite (= ?v0 f12) f10 (f19 f184 (f8 f9 ?v0))))))
(assert (forall ((?v0 S16)) (= (f61 f152 ?v0) (ite (= ?v0 f27) f10 (f19 f184 (f61 f67 ?v0))))))
(assert (forall ((?v0 S20)) (= (f58 f153 ?v0) (ite (= ?v0 f32) f10 (f19 f184 (f58 f71 ?v0))))))
(assert (forall ((?v0 S24)) (= (f75 f154 ?v0) (ite (= ?v0 f37) f10 (f19 f184 (f75 f76 ?v0))))))
(assert (forall ((?v0 S15)) (= (f80 f155 ?v0) (ite (= ?v0 f22) f10 (f19 f184 (f80 f81 ?v0))))))
(assert (forall ((?v0 S12)) (= (f49 f156 ?v0) (ite (= ?v0 f17) f10 (f19 f184 (f49 f85 ?v0))))))
(assert (forall ((?v0 S7) (?v1 S7)) (=> (= (f160 (f161 f162 ?v0) ?v1) f1) (=> (= (f160 (f161 f162 ?v1) ?v0) f1) (= ?v0 ?v1)))))
(assert (forall ((?v0 S7) (?v1 S7) (?v2 S7)) (let ((?v_0 (f161 f162 ?v0))) (=> (= (f160 ?v_0 ?v1) f1) (=> (= (f160 (f161 f162 ?v1) ?v2) f1) (= (f160 ?v_0 ?v2) f1))))))
(assert (forall ((?v0 S7)) (=> (= (f160 (f161 f183 ?v0) f10) f1) false)))
(assert (forall ((?v0 S7)) (= (f160 (f161 f183 ?v0) (f19 f184 ?v0)) f1)))
(assert (forall ((?v0 S7) (?v1 S7)) (=> (= (f160 (f161 f183 ?v0) ?v1) f1) (= (f160 (f161 f183 (f19 f184 ?v0)) (f19 f184 ?v1)) f1))))
(assert (forall ((?v0 S7)) (= (f160 (f161 f183 f10) (f19 f184 ?v0)) f1)))
(assert (forall ((?v0 S7) (?v1 S7)) (=> (= (f160 (f161 f162 (f19 f184 ?v0)) ?v1) f1) (= (f160 (f161 f162 ?v0) ?v1) f1))))
(assert (forall ((?v0 S7) (?v1 S7)) (=> (= (f160 (f161 f162 (f19 f184 ?v0)) ?v1) f1) (= (f160 (f161 f183 ?v0) ?v1) f1))))
(assert (forall ((?v0 S7) (?v1 S7)) (let ((?v_0 (f161 f162 ?v0)) (?v_1 (f19 f184 ?v1))) (=> (= (f160 ?v_0 ?v_1) f1) (=> (=> (= (f160 ?v_0 ?v1) f1) false) (=> (=> (= ?v0 ?v_1) false) false))))))
(assert (forall ((?v0 S7) (?v1 S7) (?v2 S7)) (let ((?v_0 (f161 f183 ?v2))) (=> (= (f160 (f161 f162 ?v0) ?v1) f1) (=> (= (f160 ?v_0 ?v0) f1) (= (f160 ?v_0 ?v1) f1))))))
(assert (forall ((?v0 S7) (?v1 S7) (?v2 S7)) (=> (= (f160 (f161 f162 ?v0) ?v1) f1) (=> (= (f160 (f161 f183 ?v1) ?v2) f1) (= (f160 (f161 f183 ?v0) ?v2) f1)))))
(assert (forall ((?v0 S7) (?v1 S7) (?v2 S7)) (=> (= (f160 (f161 f183 ?v0) ?v1) f1) (=> (= (f160 (f161 f162 ?v2) ?v0) f1) (= (f160 (f161 f183 ?v2) ?v1) f1)))))
(assert (forall ((?v0 S7) (?v1 S7) (?v2 S7)) (let ((?v_0 (f161 f183 ?v0))) (=> (= (f160 ?v_0 ?v1) f1) (=> (= (f160 (f161 f162 ?v1) ?v2) f1) (= (f160 ?v_0 ?v2) f1))))))
(assert (forall ((?v0 S7) (?v1 S7)) (=> (= (f160 (f161 f162 ?v0) ?v1) f1) (=> (not (= ?v1 ?v0)) (= (f160 (f161 f183 ?v0) ?v1) f1)))))
(assert (forall ((?v0 S7) (?v1 S7)) (=> (= (f160 (f161 f162 ?v0) ?v1) f1) (=> (not (= ?v0 ?v1)) (= (f160 (f161 f183 ?v0) ?v1) f1)))))
(assert (forall ((?v0 S7) (?v1 S7)) (=> (= (f160 (f161 f162 ?v0) ?v1) f1) (= (= (f160 (f161 f183 ?v1) (f19 f184 ?v0)) f1) (= ?v1 ?v0)))))
(assert (forall ((?v0 S7) (?v1 S7)) (=> (= (f160 (f161 f162 ?v0) ?v1) f1) (or (= (f160 (f161 f183 ?v0) ?v1) f1) (= ?v0 ?v1)))))
(assert (forall ((?v0 S7) (?v1 S7)) (=> (= (f160 (f161 f162 ?v0) ?v1) f1) (= (not (= (f160 (f161 f183 ?v0) ?v1) f1)) (= ?v0 ?v1)))))
(assert (forall ((?v0 S7) (?v1 S7)) (=> (= (f160 (f161 f183 ?v0) ?v1) f1) (= (f160 (f161 f162 (f19 f184 ?v0)) ?v1) f1))))
(assert (forall ((?v0 S7) (?v1 S7)) (let ((?v_0 (f161 f162 ?v0))) (=> (= (f160 ?v_0 ?v1) f1) (= (f160 ?v_0 (f19 f184 ?v1)) f1)))))
(assert (forall ((?v0 S7) (?v1 S7)) (=> (= (f160 (f161 f162 ?v0) ?v1) f1) (= (f160 (f161 f183 ?v0) (f19 f184 ?v1)) f1))))
(assert (forall ((?v0 S7) (?v1 S7)) (=> (= (f160 (f161 f183 ?v0) ?v1) f1) (= (f160 (f161 f162 ?v0) ?v1) f1))))
(assert (forall ((?v0 S7) (?v1 S7)) (=> (= (f160 (f161 f162 ?v0) ?v1) f1) (not (= (f160 (f161 f183 ?v1) ?v0) f1)))))
(assert (forall ((?v0 S7) (?v1 S7)) (=> (not (= ?v0 ?v1)) (=> (= (f160 (f161 f162 ?v1) ?v0) f1) (= (f160 (f161 f183 ?v1) ?v0) f1)))))
(assert (forall ((?v0 S7) (?v1 S7)) (=> (not (= ?v0 ?v1)) (=> (= (f160 (f161 f162 ?v0) ?v1) f1) (= (f160 (f161 f183 ?v0) ?v1) f1)))))
(assert (forall ((?v0 S7) (?v1 S7)) (=> (not (= (f160 (f161 f183 ?v0) ?v1) f1)) (= (= (f160 (f161 f162 ?v0) ?v1) f1) (= ?v0 ?v1)))))
(assert (forall ((?v0 S7) (?v1 S7)) (=> (not (= (f160 (f161 f162 ?v0) ?v1) f1)) (= (f160 (f161 f183 ?v1) ?v0) f1))))
(assert (forall ((?v0 S7) (?v1 S7)) (=> (not (= (f160 (f161 f183 ?v0) ?v1) f1)) (= (f160 (f161 f162 ?v1) ?v0) f1))))
(assert (forall ((?v0 S7) (?v1 S7)) (= (= (f160 (f161 f162 (f19 f184 ?v0)) (f19 f184 ?v1)) f1) (= (f160 (f161 f162 ?v0) ?v1) f1))))
(assert (forall ((?v0 S7) (?v1 S7)) (= (= (f160 (f161 f162 (f19 f184 ?v0)) ?v1) f1) (= (f160 (f161 f183 ?v0) ?v1) f1))))
(assert (forall ((?v0 S7) (?v1 S7)) (let ((?v_0 (f161 f162 ?v0)) (?v_1 (f19 f184 ?v1))) (= (= (f160 ?v_0 ?v_1) f1) (or (= (f160 ?v_0 ?v1) f1) (= ?v0 ?v_1))))))
(assert (forall ((?v0 S7) (?v1 S7)) (= (= (f160 (f161 f183 ?v0) (f19 f184 ?v1)) f1) (= (f160 (f161 f162 ?v0) ?v1) f1))))
(assert (forall ((?v0 S7) (?v1 S7)) (= (= (f160 (f161 f162 ?v0) ?v1) f1) (or (= (f160 (f161 f183 ?v0) ?v1) f1) (= ?v0 ?v1)))))
(assert (forall ((?v0 S7) (?v1 S7)) (= (= (f160 (f161 f183 ?v0) ?v1) f1) (and (= (f160 (f161 f162 ?v0) ?v1) f1) (not (= (f160 (f161 f162 ?v1) ?v0) f1))))))
(assert (forall ((?v0 S7) (?v1 S7)) (= (= (f160 (f161 f183 ?v0) ?v1) f1) (and (= (f160 (f161 f162 ?v0) ?v1) f1) (not (= ?v0 ?v1))))))
(assert (forall ((?v0 S7) (?v1 S7)) (= (= (f160 (f161 f183 ?v0) ?v1) f1) (= (f160 (f161 f162 (f19 f184 ?v0)) ?v1) f1))))
(assert (forall ((?v0 S7) (?v1 S7)) (or (= (f160 (f161 f162 ?v0) ?v1) f1) (= (f160 (f161 f183 ?v1) ?v0) f1))))
(assert (forall ((?v0 S7) (?v1 S7)) (= (not (= (f160 (f161 f162 ?v0) ?v1) f1)) (= (f160 (f161 f162 (f19 f184 ?v1)) ?v0) f1))))
(assert (forall ((?v0 S7) (?v1 S7)) (= (not (= (f160 (f161 f162 ?v0) ?v1) f1)) (= (f160 (f161 f183 ?v1) ?v0) f1))))
(assert (forall ((?v0 S7) (?v1 S7)) (= (not (= (f160 (f161 f183 ?v0) ?v1) f1)) (= (f160 (f161 f162 ?v1) ?v0) f1))))
(assert (forall ((?v0 S7)) (not (= (f160 (f161 f162 (f19 f184 ?v0)) ?v0) f1))))
(assert (forall ((?v0 S7)) (not (= f10 (f19 f184 ?v0)))))
(assert (forall ((?v0 S7)) (not (= f10 (f19 f184 ?v0)))))
(assert (forall ((?v0 S7)) (not (= (f19 f184 ?v0) f10))))
(assert (forall ((?v0 S7)) (not (= (f19 f184 ?v0) f10))))
(assert (forall ((?v0 S7)) (=> (= f10 (f19 f184 ?v0)) false)))
(assert (forall ((?v0 S7)) (=> (= (f19 f184 ?v0) f10) false)))
(assert (forall ((?v0 S7)) (not (= (f160 (f161 f183 ?v0) f10) f1))))
(assert (forall ((?v0 S7)) (= (not (= ?v0 f10)) (= (f160 (f161 f183 f10) ?v0) f1))))
(assert (forall ((?v0 S7)) (= (= (f160 (f161 f183 ?v0) f10) f1) false)))
(assert (forall ((?v0 S7) (?v1 S7)) (=> (= (f160 (f161 f183 ?v0) ?v1) f1) (not (= ?v1 f10)))))
(assert (forall ((?v0 S7)) (=> (=> (= ?v0 f10) false) (= (f160 (f161 f183 f10) ?v0) f1))))
(assert (forall ((?v0 S7)) (not (= (f160 (f161 f183 ?v0) ?v0) f1))))
(assert (forall ((?v0 S7)) (not (= (f160 (f161 f183 ?v0) ?v0) f1))))
(assert (forall ((?v0 S7)) (not (= ?v0 (f19 f184 ?v0)))))
(assert (forall ((?v0 S7)) (not (= (f19 f184 ?v0) ?v0))))
(assert (forall ((?v0 S7) (?v1 S7)) (= (not (= (f160 (f161 f183 ?v0) ?v1) f1)) (= (f160 (f161 f183 ?v1) (f19 f184 ?v0)) f1))))
(assert (forall ((?v0 S7) (?v1 S7)) (= (not (= ?v0 ?v1)) (or (= (f160 (f161 f183 ?v0) ?v1) f1) (= (f160 (f161 f183 ?v1) ?v0) f1)))))
(assert (forall ((?v0 S7) (?v1 S7)) (= (not (= ?v0 ?v1)) (or (= (f160 (f161 f183 ?v0) ?v1) f1) (= (f160 (f161 f183 ?v1) ?v0) f1)))))
(assert (forall ((?v0 S7) (?v1 S7)) (= (not (= (f160 (f161 f183 ?v0) ?v1) f1)) (or (= (f160 (f161 f183 ?v1) ?v0) f1) (= ?v0 ?v1)))))
(assert (forall ((?v0 S7) (?v1 S7)) (or (= (f160 (f161 f183 ?v0) ?v1) f1) (or (= ?v0 ?v1) (= (f160 (f161 f183 ?v1) ?v0) f1)))))
(assert (forall ((?v0 S7) (?v1 S7)) (let ((?v_0 (f161 f183 ?v0))) (= (= (f160 ?v_0 (f19 f184 ?v1)) f1) (or (= (f160 ?v_0 ?v1) f1) (= ?v0 ?v1))))))
(assert (forall ((?v0 S7) (?v1 S7)) (= (= (f19 f184 ?v0) (f19 f184 ?v1)) (= ?v0 ?v1))))
(assert (forall ((?v0 S7) (?v1 S7)) (= (= (f160 (f161 f183 (f19 f184 ?v0)) (f19 f184 ?v1)) f1) (= (f160 (f161 f183 ?v0) ?v1) f1))))
(assert (forall ((?v0 S7) (?v1 S7)) (=> (not (= (f160 (f161 f183 ?v0) ?v1) f1)) (= (not (= (f160 (f161 f183 ?v1) ?v0) f1)) (= ?v1 ?v0)))))
(assert (forall ((?v0 S7) (?v1 S7)) (let ((?v_0 (f161 f183 ?v0))) (=> (not (= (f160 ?v_0 ?v1) f1)) (= (= (f160 ?v_0 (f19 f184 ?v1)) f1) (= ?v0 ?v1))))))
(assert (forall ((?v0 S7) (?v1 S7)) (let ((?v_0 (f161 f183 ?v0))) (=> (not (= (f160 ?v_0 ?v1) f1)) (=> (= (f160 ?v_0 (f19 f184 ?v1)) f1) (= ?v1 ?v0))))))
(assert (forall ((?v0 S7) (?v1 S7)) (=> (not (= ?v0 ?v1)) (=> (=> (= (f160 (f161 f183 ?v0) ?v1) f1) false) (=> (=> (= (f160 (f161 f183 ?v1) ?v0) f1) false) false)))))
(assert (forall ((?v0 S7) (?v1 S7)) (=> (not (= ?v0 ?v1)) (=> (=> (= (f160 (f161 f183 ?v0) ?v1) f1) false) (=> (=> (= (f160 (f161 f183 ?v1) ?v0) f1) false) false)))))
(assert (forall ((?v0 S7)) (=> (= (f160 (f161 f183 ?v0) ?v0) f1) false)))
(assert (forall ((?v0 S7) (?v1 S7)) (=> (= (f160 (f161 f183 ?v0) ?v1) f1) (not (= ?v1 ?v0)))))
(assert (forall ((?v0 S7) (?v1 S7)) (=> (= (f160 (f161 f183 ?v0) ?v1) f1) (not (= ?v0 ?v1)))))
(assert (forall ((?v0 S7) (?v1 S7)) (=> (= (f160 (f161 f183 ?v0) ?v1) f1) (not (= ?v0 ?v1)))))
(assert (forall ((?v0 S7) (?v1 S7)) (=> (= (f160 (f161 f183 ?v0) ?v1) f1) (not (= (f160 (f161 f183 ?v1) ?v0) f1)))))
(assert (forall ((?v0 S7) (?v1 S7)) (let ((?v_0 (f161 f183 ?v0))) (=> (= (f160 ?v_0 ?v1) f1) (= (f160 ?v_0 (f19 f184 ?v1)) f1)))))
(assert (forall ((?v0 S7) (?v1 S7)) (=> (= (f160 (f161 f183 ?v0) ?v1) f1) (= (not (= (f160 (f161 f183 ?v1) ?v0) f1)) true))))
(check-sat)
(exit)
